[2026-03-24T13:56:08.842Z] Pipeline "set_vm-4-t1_vm-4-t1_s002_g001" → 2026_03_24_13_56_08_set_vm-4-t1_vm-4-t1_s002_g001_max.sol
Set parameter Username
Set parameter LicenseID to value 2797659
Set parameter LogFile to value "gurobi.log"
Using license file /opt/gurobi/gurobi.lic
Academic license - for non-commercial use only - expires 2027-03-24

Gurobi Optimizer version 13.0.1 build v13.0.1rc0 (linux64 - "Ubuntu 24.04.4 LTS")
Copyright (c) 2026, Gurobi Optimization, LLC

Warning: Duplicate section found (read 'binary') - Is a variable name equal to an LP file format keyword?
Warning: Duplicate section found (read 'binary') - Is a variable name equal to an LP file format keyword?
Warning: Duplicate section found (read 'binary') - Is a variable name equal to an LP file format keyword?
Warning: Duplicate section found (read 'binary') - Is a variable name equal to an LP file format keyword?
Warning: Duplicate section found (read 'binary') - Is a variable name equal to an LP file format keyword?
Warning: Duplicate section found (read 'binary') - Is a variable name equal to an LP file format keyword?
Warning: Duplicate section found (read 'binary') - Is a variable name equal to an LP file format keyword?
Warning: Duplicate section found (read 'binary') - Is a variable name equal to an LP file format keyword?
Warning: Duplicate section found (read 'binary') - Is a variable name equal to an LP file format keyword?
Warning: Duplicate section found (read 'binary') - Is a variable name equal to an LP file format keyword?
Warning: Further warnings of this type will be omitted.
Read LP format model from file /root/bgw/data/uploads/2026_03_24_13_56_08_set_vm-4-t1_vm-4-t1_s002_g001_max.lp
Reading time = 0.01 seconds
: 10535 rows, 642 columns, 32067 nonzeros

Using Gurobi shared library /opt/gurobi1301/linux64/lib/libgurobi.so.13.0.1

CPU model: AMD EPYC-Genoa Processor, instruction set [SSE2|AVX|AVX2|AVX512]
Thread count: 16 physical cores, 16 logical processors, using up to 16 threads

Optimize a model with 10535 rows, 642 columns and 32067 nonzeros (Max)
Model fingerprint: 0x0c6f72d3
Model has 35 linear objective coefficients
Variable types: 67 continuous, 575 integer (575 binary)
Coefficient statistics:
  Matrix range     [1e+00, 3e+01]
  Objective range  [1e+00, 1e+00]
  Bounds range     [1e+00, 1e+00]
  RHS range        [1e+00, 3e+01]

Found heuristic solution: objective 35.0000000
Presolve removed 567 rows and 118 columns
Presolve time: 0.03s
Presolved: 9968 rows, 524 columns, 30136 nonzeros
Variable types: 0 continuous, 524 integer (516 binary)
Found heuristic solution: objective 60.0000000

Root relaxation: objective 1.870000e+02, 536 iterations, 0.03 seconds (0.04 work units)

    Nodes    |    Current Node    |     Objective Bounds      |     Work
 Expl Unexpl |  Obj  Depth IntInf | Incumbent    BestBd   Gap | It/Node Time

     0     0  187.00000    0   27   60.00000  187.00000   212%     -    0s
H    0     0                      65.0000000  187.00000   188%     -    0s
H    0     0                      79.0000000  187.00000   137%     -    0s
H    0     0                      80.0000000  187.00000   134%     -    0s
H    0     0                      88.0000000  187.00000   112%     -    0s
     0     0  187.00000    0   35   88.00000  187.00000   112%     -    0s
     0     0  187.00000    0   35   88.00000  187.00000   112%     -    0s
     0     0  187.00000    0   31   88.00000  187.00000   112%     -    0s
     0     0  187.00000    0   34   88.00000  187.00000   112%     -    0s
     0     0  187.00000    0   27   88.00000  187.00000   112%     -    0s
     0     0  187.00000    0   34   88.00000  187.00000   112%     -    0s
     0     0  187.00000    0   31   88.00000  187.00000   112%     -    0s
H    0     0                      90.0000000  187.00000   108%     -    0s
     0     0  187.00000    0   36   90.00000  187.00000   108%     -    0s
     0     0  187.00000    0   27   90.00000  187.00000   108%     -    0s
H    0     0                      92.0000000  187.00000   103%     -    0s
H    0     0                      94.0000000  187.00000  98.9%     -    0s
     0     0  187.00000    0   33   94.00000  187.00000  98.9%     -    0s
     0     0  187.00000    0   32   94.00000  187.00000  98.9%     -    0s
     0     0  187.00000    0   32   94.00000  187.00000  98.9%     -    0s
     0     0  187.00000    0   31   94.00000  187.00000  98.9%     -    0s
     0     2  187.00000    0   31   94.00000  187.00000  98.9%     -    0s
H    8    12                      96.0000000  187.00000  94.8%   153    0s
  2400   957  104.86667   21   74   96.00000  161.99091  68.7%   178    5s
  4693  1468  100.00000   37   17   96.00000  154.24000  60.7%   178   10s
  9076  1092 infeasible   31        96.00000  133.03333  38.6%   162   15s
 14968  1256  111.56667   30   90   96.00000  122.53333  27.6%   153   20s
 21796   552 infeasible   32        96.00000  111.76667  16.4%   154   25s

Cutting planes:
  Cover: 1
  Inf proof: 5

Explored 24124 nodes (3728106 simplex iterations) in 26.67 seconds (67.25 work units)
Thread count was 16 (of 16 available processors)

Solution count 10: 96 96 96 ... 79

Optimal solution found (tolerance 1.00e-04)
Best objective 9.600000000000e+01, best bound 9.600000000000e+01, gap 0.0000%

Wrote result file '/root/bgw/data/results/2026_03_24_13_56_08_set_vm-4-t1_vm-4-t1_s002_g001_max.sol'

